NAME : B-n44-k7.501305.tour
COMMENT : Length = 501305
COMMENT : Found by LKH [Keld Helsgaun] Sun Dec 17 19:08:15 2017
TYPE : TOUR
DIMENSION : 50
TOUR_SECTION
1
7
22
35
38
42
5
47
14
10
9
31
43
23
39
45
19
33
12
11
24
48
6
18
41
3
37
15
27
25
40
49
2
13
4
34
16
46
8
17
30
20
50
21
26
29
44
32
28
36
-1
EOF
